100
500
343
337
331
331
329
328
323
322
319
312
312
306
306
300
299
299
297
294
294
291
287
284
280
273
273
269
269
264
261
258
253
247
241
238
237
237
236
233
228
226
219
215
214
214
209
198
195
195
194
194
188
180
179
173
173
172
171
170
167
167
156
151
151
146
143
142
140
140
139
137
136
134
131
129
122
122
119
116
113
113
112
111
111
105
104
91
91
91
89
83
78
76
69
61
61
60
59
59
59
55
